
******************************************************************************
This program contains Ipopt, a library for large-scale nonlinear optimization.
 Ipopt is released as open source code under the Eclipse Public License (EPL).
         For more information visit http://projects.coin-or.org/Ipopt
******************************************************************************

This is Ipopt version 3.12.6, running with linear solver ma57.

Number of nonzeros in equality constraint Jacobian...:        0
Number of nonzeros in inequality constraint Jacobian.:        0
Number of nonzeros in Lagrangian Hessian.............:     9999

Total number of variables............................:     5000
                     variables with only lower bounds:        0
                variables with lower and upper bounds:     5000
                     variables with only upper bounds:        0
Total number of equality constraints.................:        0
Total number of inequality constraints...............:        0
        inequality constraints with only lower bounds:        0
   inequality constraints with lower and upper bounds:        0
        inequality constraints with only upper bounds:        0

iter    objective    inf_pr   inf_du lg(mu)  ||d||  lg(rg) alpha_du alpha_pr  ls
   0  7.1986000e+05 0.00e+00 1.00e+02  -1.0 0.00e+00    -  0.00e+00 0.00e+00   0
   1  1.3631356e+05 0.00e+00 2.88e+01  -1.0 6.66e+00    -  9.31e-01 1.00e+00f  1
   2  2.4507986e+04 0.00e+00 6.36e+01  -1.0 9.90e+00    -  9.91e-01 1.00e+00f  1
   3  3.9835663e+03 0.00e+00 2.00e+00  -1.0 2.60e+00    -  1.00e+00 1.00e+00f  1
   4  6.7015992e+02 0.00e+00 8.98e+01  -1.0 1.52e+01    -  1.00e+00 1.00e+00f  1
   5  3.0911809e+02 0.00e+00 3.65e-02  -1.0 2.63e+00    -  1.00e+00 1.00e+00f  1
   6  8.9758359e+01 0.00e+00 1.87e+00  -2.5 2.89e+00    -  9.83e-01 1.00e+00f  1
   7  2.7761373e+01 0.00e+00 9.33e-03  -2.5 1.08e-01    -  1.00e+00 1.00e+00f  1
   8  7.2958053e+00 0.00e+00 4.54e+00  -3.8 4.55e+00    -  9.91e-01 1.00e+00f  1
   9  2.0818005e+00 0.00e+00 8.69e-04  -3.8 1.22e-01    -  1.00e+00 1.00e+00f  1
iter    objective    inf_pr   inf_du lg(mu)  ||d||  lg(rg) alpha_du alpha_pr  ls
  10  5.9735998e-01 0.00e+00 5.43e+00  -5.7 5.10e+00    -  9.52e-01 1.00e+00f  1
  11  1.3950480e-01 0.00e+00 6.95e-05  -5.7 1.37e-01    -  1.00e+00 1.00e+00f  1
  12  1.1760586e-01 0.00e+00 1.98e+00  -5.7 1.28e+01    -  1.00e+00 2.50e-01f  3
  13  1.8407760e-02 0.00e+00 2.14e-05  -5.7 4.85e-02    -  1.00e+00 1.00e+00f  1
  14  1.7750165e-02 0.00e+00 1.70e-01  -5.7 1.54e+01    -  1.00e+00 6.25e-02f  5
  15  7.1124795e-03 0.00e+00 1.35e-06  -5.7 4.47e-03    -  1.00e+00 1.00e+00f  1
  16  2.0751401e-03 0.00e+00 3.57e-01  -8.6 1.40e+00    -  9.87e-01 1.00e+00f  1
  17  4.5572392e-04 0.00e+00 2.50e-07  -8.6 8.55e-03    -  1.00e+00 1.00e+00f  1
  18  4.4375863e-04 0.00e+00 2.88e-02  -8.6 1.28e+01    -  1.00e+00 3.12e-02f  6
  19  5.5619262e-05 0.00e+00 1.06e-07  -8.6 6.94e-04    -  1.00e+00 1.00e+00f  1
iter    objective    inf_pr   inf_du lg(mu)  ||d||  lg(rg) alpha_du alpha_pr  ls
  20  5.5493968e-05 0.00e+00 1.63e-02  -8.6 1.93e+01    -  1.00e+00 1.56e-02f  7
  21  1.2332032e-05 0.00e+00 8.72e-09  -8.6 3.94e-04    -  1.00e+00 1.00e+00f  1

Number of Iterations....: 21

                                   (scaled)                 (unscaled)
Objective...............:   4.2232984996787568e-06    1.2332031619061971e-05
Dual infeasibility......:   8.7202597896642390e-09    2.5463158585819582e-08
Constraint violation....:   0.0000000000000000e+00    0.0000000000000000e+00
Complementarity.........:   3.3996320844777908e-09    9.9269256866751490e-09
Overall NLP error.......:   8.7202597896642390e-09    2.5463158585819582e-08


Number of objective function evaluations             = 55
Number of objective gradient evaluations             = 22
Number of equality constraint evaluations            = 0
Number of inequality constraint evaluations          = 0
Number of equality constraint Jacobian evaluations   = 0
Number of inequality constraint Jacobian evaluations = 0
Number of Lagrangian Hessian evaluations             = 21
Total CPU secs in IPOPT (w/o function evaluations)   =      0.083
Total CPU secs in NLP function evaluations           =      0.053

EXIT: Optimal Solution Found.

 ** SUBROUTINE CUTEST_csetup: Warning. The problem has no general constraints. 
 ** Other tools may be preferable ** 

************************ CUTEst statistics ************************


 Package used            :  IPOPT
 Problem                 :  NONSCOMP  
 # variables             =            5000
 # constraints           =               0
 # objective functions   =        0.7800000E+02
 # objective gradients   =        0.2300000E+02
 # objective Hessians    =        0.2200000E+02
 # Hessian-vector prdct  =        0.0000000E+00
 # constraints functions =        0.0000000E+00
 # constraints gradients =        0.0000000E+00
 # constraints Hessians  =        0.0000000E+00
 Exit code               =               0
 Final f                 =   0.1233203E-04
 Set up time             =            0.08 seconds
 Solve time              =            0.30 seconds


******************************************************************

System Time =       0.1070000008 s.
